p tdp 20 58
1 10
1 11
1 13
1 17
1 18
2 6
2 9
2 11
2 14
2 16
3 6
3 7
3 10
3 14
3 15
4 5
4 7
4 8
4 10
4 11
4 13
4 19
4 20
5 8
5 15
5 17
5 18
5 20
6 14
6 15
6 16
6 18
6 19
7 12
7 13
7 14
7 16
8 11
8 15
8 16
8 18
8 19
8 20
9 14
9 15
9 16
9 19
10 15
10 16
11 14
11 18
11 20
12 16
13 14
13 15
13 18
15 19
18 19
